NAME: tsp20-24
TYPE: TSP
DIMENSION: 20
EDGE_WEIGHT_TYPE: EUC_2D
NODE_COORD_SECTION
0 43 43
1 7 82
2 53 25
3 54 60
4 83 60
5 39 4
6 62 25
7 75 28
8 1 69
9 7 22
10 75 14
11 94 12
12 0 18
13 87 92
14 92 52
15 52 62
16 48 74
17 26 94
18 74 92
19 3 87
EOF